p cnf 1437
-18 -452
-19 -455
-20 -458
-21 -461
-22 -464
-23 -467
-24 -470
-25 -473
-26 -476
-27 -479
-28 -482
-29 -485
-30 -488
-31 -491
-32 -494
-33 -497
-34 -500
-35 501
-36 502
-37 503
-38 504
-39 505
-40 506
-41 507
-42 508
-43 509
-44 510
-45 511
-46 512
-47 513
-48 514
-49 515
-50 -19
-50 -20
19 20 50
-51 -21
-51 -22
21 22 51
-52 -23
-52 -24
23 24 52
-53 -25
-53 -26
25 26 53
-54 -27
-54 -28
27 28 54
-55 -29
-55 -30
29 30 55
-56 -31
-56 -32
31 32 56
-57 -33
-57 -34
33 34 57
-58 -35
-58 -36
35 36 58
-59 -37
-59 -38
37 38 59
-60 -39
-60 -40
39 40 60
-61 -41
-61 -42
41 42 61
-62 -43
-62 -44
43 44 62
-63 -45
-63 -46
45 46 63
-64 -47
-64 -48
47 48 64
-65 50
-65 51
-50 -51 65
-66 52
-66 53
-52 -53 66
-67 54
-67 55
-54 -55 67
-68 56
-68 57
-56 -57 68
-69 58
-69 59
-58 -59 69
-70 60
-70 61
-60 -61 70
-71 62
-71 63
-62 -63 71
-72 -49
-72 64
49 -64 72
-73 65
-73 66
-65 -66 73
-74 67
-74 68
-67 -68 74
-75 69
-75 70
-69 -70 75
-76 71
-76 72
-71 -72 76
-77 73
-77 74
-73 -74 77
-78 75
-78 76
-75 -76 78
-79 77
-79 78
-77 -78 79
-80 -18
-80 19
18 -19 80
-81 18
-81 -19
-18 19 81
-82 -80
-82 -81
80 81 82
-83 18
-83 19
-18 -19 83
-84 -18
-84 -82
18 82 84
-85 18
-85 82
-18 -82 85
-86 -84
-86 -85
84 85 86
-87 18
-87 -82
-18 82 87
-88 -83
-88 -87
83 87 88
-89 -19
-89 20
19 -20 89
-90 19
-90 -20
-19 20 90
-91 -89
-91 -90
89 90 91
-92 19
-92 20
-19 -20 92
-93 88
-93 -91
-88 91 93
-94 -88
-94 91
88 -91 94
-95 -93
-95 -94
93 94 95
-96 -88
-96 -91
88 91 96
-97 -92
-97 -96
92 96 97
-98 -20
-98 21
20 -21 98
-99 20
-99 -21
-20 21 99
-100 -98
-100 -99
98 99 100
-101 20
-101 21
-20 -21 101
-102 97
-102 -100
-97 100 102
-103 -97
-103 100
97 -100 103
-104 -102
-104 -103
102 103 104
-105 -97
-105 -100
97 100 105
-106 -101
-106 -105
101 105 106
-107 -21
-107 22
21 -22 107
-108 21
-108 -22
-21 22 108
-109 -107
-109 -108
107 108 109
-110 21
-110 22
-21 -22 110
-111 106
-111 -109
-106 109 111
-112 -106
-112 109
106 -109 112
-113 -111
-113 -112
111 112 113
-114 -106
-114 -109
106 109 114
-115 -110
-115 -114
110 114 115
-116 -22
-116 23
22 -23 116
-117 22
-117 -23
-22 23 117
-118 -116
-118 -117
116 117 118
-119 22
-119 23
-22 -23 119
-120 115
-120 -118
-115 118 120
-121 -115
-121 118
115 -118 121
-122 -120
-122 -121
120 121 122
-123 -115
-123 -118
115 118 123
-124 -119
-124 -123
119 123 124
-125 -23
-125 24
23 -24 125
-126 23
-126 -24
-23 24 126
-127 -125
-127 -126
125 126 127
-128 23
-128 24
-23 -24 128
-129 124
-129 -127
-124 127 129
-130 -124
-130 127
124 -127 130
-131 -129
-131 -130
129 130 131
-132 -124
-132 -127
124 127 132
-133 -128
-133 -132
128 132 133
-134 -24
-134 25
24 -25 134
-135 24
-135 -25
-24 25 135
-136 -134
-136 -135
134 135 136
-137 24
-137 25
-24 -25 137
-138 133
-138 -136
-133 136 138
-139 -133
-139 136
133 -136 139
-140 -138
-140 -139
138 139 140
-141 -133
-141 -136
133 136 141
-142 -137
-142 -141
137 141 142
-143 -25
-143 26
25 -26 143
-144 25
-144 -26
-25 26 144
-145 -143
-145 -144
143 144 145
-146 25
-146 26
-25 -26 146
-147 142
-147 -145
-142 145 147
-148 -142
-148 145
142 -145 148
-149 -147
-149 -148
147 148 149
-150 -142
-150 -145
142 145 150
-151 -146
-151 -150
146 150 151
-152 -26
-152 27
26 -27 152
-153 26
-153 -27
-26 27 153
-154 -152
-154 -153
152 153 154
-155 26
-155 27
-26 -27 155
-156 151
-156 -154
-151 154 156
-157 -151
-157 154
151 -154 157
-158 -156
-158 -157
156 157 158
-159 -151
-159 -154
151 154 159
-160 -155
-160 -159
155 159 160
-161 -27
-161 28
27 -28 161
-162 27
-162 -28
-27 28 162
-163 -161
-163 -162
161 162 163
-164 27
-164 28
-27 -28 164
-165 160
-165 -163
-160 163 165
-166 -160
-166 163
160 -163 166
-167 -165
-167 -166
165 166 167
-168 -160
-168 -163
160 163 168
-169 -164
-169 -168
164 168 169
-170 -28
-170 29
28 -29 170
-171 28
-171 -29
-28 29 171
-172 -170
-172 -171
170 171 172
-173 28
-173 29
-28 -29 173
-174 169
-174 -172
-169 172 174
-175 -169
-175 172
169 -172 175
-176 -174
-176 -175
174 175 176
-177 -169
-177 -172
169 172 177
-178 -173
-178 -177
173 177 178
-179 -29
-179 30
29 -30 179
-180 29
-180 -30
-29 30 180
-181 -179
-181 -180
179 180 181
-182 29
-182 30
-29 -30 182
-183 178
-183 -181
-178 181 183
-184 -178
-184 181
178 -181 184
-185 -183
-185 -184
183 184 185
-186 -178
-186 -181
178 181 186
-187 -182
-187 -186
182 186 187
-188 -30
-188 31
30 -31 188
-189 30
-189 -31
-30 31 189
-190 -188
-190 -189
188 189 190
-191 30
-191 31
-30 -31 191
-192 187
-192 -190
-187 190 192
-193 -187
-193 190
187 -190 193
-194 -192
-194 -193
192 193 194
-195 -187
-195 -190
187 190 195
-196 -191
-196 -195
191 195 196
-197 -31
-197 32
31 -32 197
-198 31
-198 -32
-31 32 198
-199 -197
-199 -198
197 198 199
-200 31
-200 32
-31 -32 200
-201 196
-201 -199
-196 199 201
-202 -196
-202 199
196 -199 202
-203 -201
-203 -202
201 202 203
-204 -196
-204 -199
196 199 204
-205 -200
-205 -204
200 204 205
-206 -32
-206 33
32 -33 206
-207 32
-207 -33
-32 33 207
-208 -206
-208 -207
206 207 208
-209 32
-209 33
-32 -33 209
-210 205
-210 -208
-205 208 210
-211 -205
-211 208
205 -208 211
-212 -210
-212 -211
210 211 212
-213 -205
-213 -208
205 208 213
-214 -209
-214 -213
209 213 214
-215 -33
-215 34
33 -34 215
-216 33
-216 -34
-33 34 216
-217 -215
-217 -216
215 216 217
-218 33
-218 34
-33 -34 218
-219 214
-219 -217
-214 217 219
-220 -214
-220 217
214 -217 220
-221 -219
-221 -220
219 220 221
-222 -214
-222 -217
214 217 222
-223 -218
-223 -222
218 222 223
-224 -34
-224 35
34 -35 224
-225 34
-225 -35
-34 35 225
-226 -224
-226 -225
224 225 226
-227 34
-227 35
-34 -35 227
-228 223
-228 -226
-223 226 228
-229 -223
-229 226
223 -226 229
-230 -228
-230 -229
228 229 230
-231 -223
-231 -226
223 226 231
-232 -227
-232 -231
227 231 232
-233 -35
-233 36
35 -36 233
-234 35
-234 -36
-35 36 234
-235 -233
-235 -234
233 234 235
-236 35
-236 36
-35 -36 236
-237 232
-237 -235
-232 235 237
-238 -232
-238 235
232 -235 238
-239 -237
-239 -238
237 238 239
-240 -232
-240 -235
232 235 240
-241 -236
-241 -240
236 240 241
-242 -36
-242 37
36 -37 242
-243 36
-243 -37
-36 37 243
-244 -242
-244 -243
242 243 244
-245 36
-245 37
-36 -37 245
-246 241
-246 -244
-241 244 246
-247 -241
-247 244
241 -244 247
-248 -246
-248 -247
246 247 248
-249 -241
-249 -244
241 244 249
-250 -245
-250 -249
245 249 250
-251 -37
-251 38
37 -38 251
-252 37
-252 -38
-37 38 252
-253 -251
-253 -252
251 252 253
-254 37
-254 38
-37 -38 254
-255 250
-255 -253
-250 253 255
-256 -250
-256 253
250 -253 256
-257 -255
-257 -256
255 256 257
-258 -250
-258 -253
250 253 258
-259 -254
-259 -258
254 258 259
-260 -38
-260 39
38 -39 260
-261 38
-261 -39
-38 39 261
-262 -260
-262 -261
260 261 262
-263 38
-263 39
-38 -39 263
-264 259
-264 -262
-259 262 264
-265 -259
-265 262
259 -262 265
-266 -264
-266 -265
264 265 266
-267 -259
-267 -262
259 262 267
-268 -263
-268 -267
263 267 268
-269 -39
-269 40
39 -40 269
-270 39
-270 -40
-39 40 270
-271 -269
-271 -270
269 270 271
-272 39
-272 40
-39 -40 272
-273 268
-273 -271
-268 271 273
-274 -268
-274 271
268 -271 274
-275 -273
-275 -274
273 274 275
-276 -268
-276 -271
268 271 276
-277 -272
-277 -276
272 276 277
-278 -40
-278 41
40 -41 278
-279 40
-279 -41
-40 41 279
-280 -278
-280 -279
278 279 280
-281 40
-281 41
-40 -41 281
-282 277
-282 -280
-277 280 282
-283 -277
-283 280
277 -280 283
-284 -282
-284 -283
282 283 284
-285 -277
-285 -280
277 280 285
-286 -281
-286 -285
281 285 286
-287 -41
-287 42
41 -42 287
-288 41
-288 -42
-41 42 288
-289 -287
-289 -288
287 288 289
-290 41
-290 42
-41 -42 290
-291 286
-291 -289
-286 289 291
-292 -286
-292 289
286 -289 292
-293 -291
-293 -292
291 292 293
-294 -286
-294 -289
286 289 294
-295 -290
-295 -294
290 294 295
-296 -42
-296 43
42 -43 296
-297 42
-297 -43
-42 43 297
-298 -296
-298 -297
296 297 298
-299 42
-299 43
-42 -43 299
-300 295
-300 -298
-295 298 300
-301 -295
-301 298
295 -298 301
-302 -300
-302 -301
300 301 302
-303 -295
-303 -298
295 298 303
-304 -299
-304 -303
299 303 304
-305 -43
-305 44
43 -44 305
-306 43
-306 -44
-43 44 306
-307 -305
-307 -306
305 306 307
-308 43
-308 44
-43 -44 308
-309 304
-309 -307
-304 307 309
-310 -304
-310 307
304 -307 310
-311 -309
-311 -310
309 310 311
-312 -304
-312 -307
304 307 312
-313 -308
-313 -312
308 312 313
-314 -44
-314 45
44 -45 314
-315 44
-315 -45
-44 45 315
-316 -314
-316 -315
314 315 316
-317 44
-317 45
-44 -45 317
-318 313
-318 -316
-313 316 318
-319 -313
-319 316
313 -316 319
-320 -318
-320 -319
318 319 320
-321 -313
-321 -316
313 316 321
-322 -317
-322 -321
317 321 322
-323 -45
-323 46
45 -46 323
-324 45
-324 -46
-45 46 324
-325 -323
-325 -324
323 324 325
-326 45
-326 46
-45 -46 326
-327 322
-327 -325
-322 325 327
-328 -322
-328 325
322 -325 328
-329 -327
-329 -328
327 328 329
-330 -322
-330 -325
322 325 330
-331 -326
-331 -330
326 330 331
-332 -46
-332 47
46 -47 332
-333 46
-333 -47
-46 47 333
-334 -332
-334 -333
332 333 334
-335 46
-335 47
-46 -47 335
-336 331
-336 -334
-331 334 336
-337 -331
-337 334
331 -334 337
-338 -336
-338 -337
336 337 338
-339 -331
-339 -334
331 334 339
-340 -335
-340 -339
335 339 340
-341 -47
-341 48
47 -48 341
-342 47
-342 -48
-47 48 342
-343 -341
-343 -342
341 342 343
-344 47
-344 48
-47 -48 344
-345 340
-345 -343
-340 343 345
-346 -340
-346 343
340 -343 346
-347 -345
-347 -346
345 346 347
-348 -340
-348 -343
340 343 348
-349 -344
-349 -348
344 348 349
-350 -48
-350 49
48 -49 350
-351 48
-351 -49
-48 49 351
-352 -350
-352 -351
350 351 352
-353 48
-353 49
-48 -49 353
-354 349
-354 -352
-349 352 354
-355 -349
-355 352
349 -352 355
-356 -354
-356 -355
354 355 356
-357 -349
-357 -352
349 352 357
-358 -353
-358 -357
353 357 358
-359 18
-359 -86
-18 86 359
-360 -18
-360 20
18 -20 360
-361 -359
-361 -360
359 360 361
-362 18
-362 -95
-18 95 362
-363 -18
-363 21
18 -21 363
-364 -362
-364 -363
362 363 364
-365 18
-365 -104
-18 104 365
-366 -18
-366 22
18 -22 366
-367 -365
-367 -366
365 366 367
-368 18
-368 -113
-18 113 368
-369 -18
-369 23
18 -23 369
-370 -368
-370 -369
368 369 370
-371 18
-371 -122
-18 122 371
-372 -18
-372 24
18 -24 372
-373 -371
-373 -372
371 372 373
-374 18
-374 -131
-18 131 374
-375 -18
-375 25
18 -25 375
-376 -374
-376 -375
374 375 376
-377 18
-377 -140
-18 140 377
-378 -18
-378 26
18 -26 378
-379 -377
-379 -378
377 378 379
-380 18
-380 -149
-18 149 380
-381 -18
-381 27
18 -27 381
-382 -380
-382 -381
380 381 382
-383 18
-383 -158
-18 158 383
-384 -18
-384 28
18 -28 384
-385 -383
-385 -384
383 384 385
-386 18
-386 -167
-18 167 386
-387 -18
-387 29
18 -29 387
-388 -386
-388 -387
386 387 388
-389 18
-389 -176
-18 176 389
-390 -18
-390 30
18 -30 390
-391 -389
-391 -390
389 390 391
-392 18
-392 -185
-18 185 392
-393 -18
-393 31
18 -31 393
-394 -392
-394 -393
392 393 394
-395 18
-395 -194
-18 194 395
-396 -18
-396 32
18 -32 396
-397 -395
-397 -396
395 396 397
-398 18
-398 -203
-18 203 398
-399 -18
-399 33
18 -33 399
-400 -398
-400 -399
398 399 400
-401 18
-401 -212
-18 212 401
-402 -18
-402 34
18 -34 402
-403 -401
-403 -402
401 402 403
-404 18
-404 -221
-18 221 404
-405 -18
-405 35
18 -35 405
-406 -404
-406 -405
404 405 406
-407 18
-407 -230
-18 230 407
-408 -18
-408 36
18 -36 408
-409 -407
-409 -408
407 408 409
-410 18
-410 -239
-18 239 410
-411 -18
-411 37
18 -37 411
-412 -410
-412 -411
410 411 412
-413 18
-413 -248
-18 248 413
-414 -18
-414 38
18 -38 414
-415 -413
-415 -414
413 414 415
-416 18
-416 -257
-18 257 416
-417 -18
-417 39
18 -39 417
-418 -416
-418 -417
416 417 418
-419 18
-419 -266
-18 266 419
-420 -18
-420 40
18 -40 420
-421 -419
-421 -420
419 420 421
-422 18
-422 -275
-18 275 422
-423 -18
-423 41
18 -41 423
-424 -422
-424 -423
422 423 424
-425 18
-425 -284
-18 284 425
-426 -18
-426 42
18 -42 426
-427 -425
-427 -426
425 426 427
-428 18
-428 -293
-18 293 428
-429 -18
-429 43
18 -43 429
-430 -428
-430 -429
428 429 430
-431 18
-431 -302
-18 302 431
-432 -18
-432 44
18 -44 432
-433 -431
-433 -432
431 432 433
-434 18
-434 -311
-18 311 434
-435 -18
-435 45
18 -45 435
-436 -434
-436 -435
434 435 436
-437 18
-437 -320
-18 320 437
-438 -18
-438 46
18 -46 438
-439 -437
-439 -438
437 438 439
-440 18
-440 -329
-18 329 440
-441 -18
-441 47
18 -47 441
-442 -440
-442 -441
440 441 442
-443 18
-443 -338
-18 338 443
-444 -18
-444 48
18 -48 444
-445 -443
-445 -444
443 444 445
-446 18
-446 -347
-18 347 446
-447 -18
-447 49
18 -49 447
-448 -446
-448 -447
446 447 448
-449 18
-449 -356
-18 356 449
-450 1
-450 79
-1 -79 450
-451 -79
-451 80
79 -80 451
-452 -450
-452 -451
450 451 452
-453 2
-453 79
-2 -79 453
-454 -79
-454 -361
79 361 454
-455 -453
-455 -454
453 454 455
-456 3
-456 79
-3 -79 456
-457 -79
-457 -364
79 364 457
-458 -456
-458 -457
456 457 458
-459 4
-459 79
-4 -79 459
-460 -79
-460 -367
79 367 460
-461 -459
-461 -460
459 460 461
-462 5
-462 79
-5 -79 462
-463 -79
-463 -370
79 370 463
-464 -462
-464 -463
462 463 464
-465 6
-465 79
-6 -79 465
-466 -79
-466 -373
79 373 466
-467 -465
-467 -466
465 466 467
-468 7
-468 79
-7 -79 468
-469 -79
-469 -376
79 376 469
-470 -468
-470 -469
468 469 470
-471 8
-471 79
-8 -79 471
-472 -79
-472 -379
79 379 472
-473 -471
-473 -472
471 472 473
-474 9
-474 79
-9 -79 474
-475 -79
-475 -382
79 382 475
-476 -474
-476 -475
474 475 476
-477 10
-477 79
-10 -79 477
-478 -79
-478 -385
79 385 478
-479 -477
-479 -478
477 478 479
-480 11
-480 79
-11 -79 480
-481 -79
-481 -388
79 388 481
-482 -480
-482 -481
480 481 482
-483 12
-483 79
-12 -79 483
-484 -79
-484 -391
79 391 484
-485 -483
-485 -484
483 484 485
-486 13
-486 79
-13 -79 486
-487 -79
-487 -394
79 394 487
-488 -486
-488 -487
486 487 488
-489 14
-489 79
-14 -79 489
-490 -79
-490 -397
79 397 490
-491 -489
-491 -490
489 490 491
-492 15
-492 79
-15 -79 492
-493 -79
-493 -400
79 400 493
-494 -492
-494 -493
492 493 494
-495 16
-495 79
-16 -79 495
-496 -79
-496 -403
79 403 496
-497 -495
-497 -496
495 496 497
-498 17
-498 79
-17 -79 498
-499 -79
-499 -406
79 406 499
-500 -498
-500 -499
498 499 500
-501 -79
-501 -409
79 409 501
-502 -79
-502 -412
79 412 502
-503 -79
-503 -415
79 415 503
-504 -79
-504 -418
79 418 504
-505 -79
-505 -421
79 421 505
-506 -79
-506 -424
79 424 506
-507 -79
-507 -427
79 427 507
-508 -79
-508 -430
79 430 508
-509 -79
-509 -433
79 433 509
-510 -79
-510 -436
79 436 510
-511 -79
-511 -439
79 439 511
-512 -79
-512 -442
79 442 512
-513 -79
-513 -445
79 445 513
-514 -79
-514 -448
79 448 514
-515 -79
-515 449
79 -449 515
-516 -49
-516 358
49 -358 516
-517 18
-517 -516
-18 516 517
517
